p cnf 56 139
1 2 0
3 4 0
5 0
6 7 0
8 9 0
10 11 0
12 13 0
14 15 0
16 17 0
18 19 0
20 21 0
23 24 0
25 26 0
27 0
28 29 0
30 31 0
34 35 0
37 38 0
39 40 0
-29 -30 -32 -34 -36 -38 -40 0
-28 -31 -32 -33 -35 -37 -40 0
-29 -30 -32 -34 -38 -39 0
-1 -3 -5 -6 -8 -11 -12 -14 0
-28 -30 -33 -34 -36 -37 -39 0
1 -41 0
3 -41 0
5 -41 0
7 -41 0
9 -41 0
10 -41 0
12 -41 0
14 -41 0
16 -42 0
18 -42 0
21 -42 0
22 -42 0
23 -42 0
25 -42 0
-42 0
28 -43 0
30 -43 0
35 -43 0
37 -43 0
39 -43 0
2 -44 0
3 -44 0
-44 0
7 -44 0
8 -44 0
11 -44 0
12 -44 0
15 -44 0
17 -45 0
18 -45 0
-45 0
21 -45 0
24 -45 0
25 -45 0
27 -45 0
2 -46 0
4 -46 0
5 -46 0
7 -46 0
9 -46 0
10 -46 0
12 -46 0
15 -46 0
17 -47 0
19 -47 0
21 -47 0
22 -47 0
23 -47 0
25 -47 0
27 -47 0
29 -48 0
31 -48 0
35 -48 0
37 -48 0
40 -48 0
2 -49 0
4 -49 0
5 -49 0
6 -49 0
8 -49 0
10 -49 0
13 -49 0
14 -49 0
17 -50 0
19 -50 0
20 -50 0
23 -50 0
26 -50 0
-50 0
29 -51 0
31 -51 0
33 -51 0
34 -51 0
38 -51 0
39 -51 0
1 -52 0
3 -52 0
5 -52 0
7 -52 0
8 -52 0
10 -52 0
12 -52 0
15 -52 0
28 -53 0
30 -53 0
34 -53 0
37 -53 0
40 -53 0
1 -54 0
4 -54 0
5 -54 0
7 -54 0
9 -54 0
11 -54 0
13 -54 0
15 -54 0
16 -55 0
19 -55 0
21 -55 0
22 -55 0
24 -55 0
26 -55 0
27 -55 0
28 -56 0
31 -56 0
35 -56 0
36 -56 0
38 -56 0
40 -56 0
41 42 43 0
44 45 0
46 47 48 0
49 50 51 0
52 53 0
54 55 56 0
